10
1 0 18
2 0 14
2 1 4
3 0 10
3 1 8
3 2 18
4 0 13
4 1 17
4 2 2
4 3 8
5 0 6
5 1 2
5 2 18
5 3 12
5 4 19
6 0 9
6 1 3
6 2 2
6 3 4
6 4 12
6 5 12
7 0 12
7 1 4
7 2 1
7 3 3
7 4 8
7 5 8
7 6 18
8 0 11
8 1 4
8 2 3
8 3 20
8 4 6
8 5 3
8 6 18
8 7 17
9 0 2
9 1 14
9 2 19
9 3 5
9 4 2
9 5 8
9 6 17
9 7 14
9 8 17
